Maximize
  - 3.6814588367354 edge_0_1_0_0 - 3.00629 edge_0_2_0_0
   - 0.09618133964306 edge_0_3_0_0 - 1.6302948397389 edge_0_4_0_0
   - 2.1446253890455 edge_0_5_0_0 - 1.7104941659498 edge_0_7_0_0
   - 2.99446 edge_0_9_0_0 - 1.5878326160235 edge_0_11_0_0
   - 1.1488866496542 edge_0_12_0_0 - 2.5774790721072 edge_0_14_0_0
   + 0.3445387372 edge_1_2_0_0 + 0.1104087350752108 edge_1_3_0_0
   - 0.3758978721016784 edge_1_4_0_0 - 0.2308793294691324 edge_1_6_0_0
   + 0.0882626692875907 edge_1_7_0_0 - 0.1206749378579877 edge_1_10_0_0
   + 0.0217581584248 edge_2_1_0_0 + 1.112946215970223 edge_2_3_0_0
   + 0.1230657280241559 edge_2_5_0_0 + 0.3676517588636931 edge_2_6_0_0
   + 1.1677399299356 edge_2_7_0_0 + 0.48118797112872 edge_2_9_0_0
   + 0.8969856314368589 edge_2_10_0_0 - 0.00886416086435032 edge_2_11_0_0
   - 0.022709273709258 edge_2_12_0_0 - 0.2103175824500243 edge_2_14_0_0
   + 1.1538393769264 edge_2_15_0_0 + 1.541014527464895 edge_3_1_0_0
   + 2.3168583742038 edge_3_2_0_0 - 0.0831865158754549 edge_3_4_0_0
   + 1.59581997908701 edge_3_5_0_0 + 1.584761446335245 edge_3_6_0_0
   + 3.0175199214498 edge_3_7_0_0 + 1.076145175021412 edge_3_8_0_0
   + 2.0340632062062 edge_3_9_0_0 + 1.728679048516581 edge_3_10_0_0
   + 0.4306510672352813 edge_3_11_0_0 + 1.908575865241843 edge_3_12_0_0
   + 0.9848725433387177 edge_3_14_0_0 + 4.481829679302965 edge_3_15_0_0
   - 0.3058992539029738 edge_4_1_0_0 - 0.1786155997657914 edge_4_6_0_0
   - 0.1258423002656716 edge_4_7_0_0 + 0.1802160219309267 edge_4_10_0_0
   + 0.0573444090263211 edge_4_11_0_0 + 0.1050901671967279 edge_4_12_0_0
   + 0.0382009658306386 edge_4_14_0_0 + 0.0699826089851807 edge_4_15_0_0
   - 0.8013051065069076 edge_5_1_0_0 + 0.2863863670847669 edge_5_2_0_0
   + 0.2292143789421897 edge_5_3_0_0 + 4.018446669138086 edge_5_4_0_0
   - 0.2008063519819449 edge_5_6_0_0 + 0.6055639208778764 edge_5_7_0_0
   + 1.470345818251424 edge_5_8_0_0 + 1.2205770950196 edge_5_9_0_0
   + 2.201723944858255 edge_5_10_0_0 + 0.9489646725475674 edge_5_11_0_0
   + 2.818893435400057 edge_5_12_0_0 + 2.170370835487471 edge_5_14_0_0
   + 2.623872338273773 edge_5_15_0_0 - 0.1981736454555252 edge_6_1_0_0
   - 1.0210825196052 edge_6_2_0_0 - 0.5760147483134693 edge_6_3_0_0
   - 0.0896491755546814 edge_6_4_0_0 - 0.9224205264918821 edge_6_5_0_0
   + 1.137245321064 edge_6_7_0_0 - 0.2810122012140571 edge_6_8_0_0
   - 0.55066185686068 edge_6_9_0_0 + 0.00364764122022819 edge_6_10_0_0
   - 0.4816513629138868 edge_6_11_0_0 - 0.5448483379574434 edge_6_12_0_0
   - 0.5105342685527047 edge_6_14_0_0 - 0.1616099096935616 edge_6_15_0_0
   + 0.11684194814908 edge_7_1_0_0 + 0.0917362 edge_7_2_0_0
   + 0.6035949839860201 edge_7_3_0_0 - 0.037911203905297 edge_7_4_0_0
   + 1.508762362368942 edge_7_5_0_0 + 2.714668234512 edge_7_6_0_0
   + 1.758649985554889 edge_7_8_0_0 + 1.5490198893111 edge_7_9_0_0
   + 1.483166747444373 edge_7_10_0_0 + 0.330583075735 edge_7_11_0_0
   + 0.853851969179846 edge_7_12_0_0 + 0.6455406877594 edge_7_14_0_0
   + 1.021997807428302 edge_7_15_0_0 - 1.424586635278429 edge_8_1_0_0
   - 1.3705151621088 edge_8_2_0_0 - 0.549916689888999 edge_8_3_0_0
   - 0.0821905735680153 edge_8_5_0_0 - 0.4674839390658 edge_8_7_0_0
   + 0.2795895292775399 edge_8_9_0_0 + 0.0105701605097859 edge_8_10_0_0
   - 0.6699665570539073 edge_8_11_0_0 - 0.3096316225013853 edge_8_12_0_0
   - 0.7916216576327743 edge_8_14_0_0 - 0.36385930691565 edge_9_1_0_0
   + 0.0034868397907896 edge_9_2_0_0 - 0.3115559593996199 edge_9_3_0_0
   + 0.1670936247561 edge_9_4_0_0 + 1.024877796508 edge_9_5_0_0
   + 0.74503117448584 edge_9_6_0_0 + 0.809318 edge_9_7_0_0
   + 3.3859122466575 edge_9_8_0_0 + 1.59678311953 edge_9_10_0_0
   + 0.28601004870075 edge_9_11_0_0 + 0.57025204632648 edge_9_12_0_0
   + 0.19266471299112 edge_9_14_0_0 + 1.7466590568036 edge_9_15_0_0
   - 1.363178994069338 edge_10_1_0_0 - 1.862821676898 edge_10_2_0_0
   - 1.235341992473303 edge_10_3_0_0 - 0.4141566969894752 edge_10_5_0_0
   - 1.028242602947289 edge_10_6_0_0 - 0.8969245597407199 edge_10_7_0_0
   - 0.3316767025902216 edge_10_8_0_0 - 0.18177334022372 edge_10_9_0_0
   - 0.2682679641414091 edge_10_11_0_0 - 0.0945790435762213 edge_10_12_0_0
   - 0.2070421043099956 edge_10_14_0_0 - 0.2672468584867375 edge_11_2_0_0
   - 0.2091526557239466 edge_11_3_0_0 + 0.281140985962764 edge_11_4_0_0
   + 0.6004922028469881 edge_11_5_0_0 - 0.5766435279485512 edge_11_6_0_0
   - 0.28824356964755 edge_11_7_0_0 - 0.5815447468862796 edge_11_8_0_0
   + 0.04070002579676 edge_11_9_0_0 + 0.5216524166006663 edge_11_10_0_0
   + 0.3065588181428142 edge_11_12_0_0 + 0.7741505695091511 edge_11_14_0_0
   + 0.7040435605225001 edge_11_15_0_0 - 0.6073902932798706 edge_12_1_0_0
   - 0.9325055329091999 edge_12_2_0_0 - 0.2495772250907256 edge_12_3_0_0
   - 0.2816275564414107 edge_12_4_0_0 + 0.650298136306152 edge_12_5_0_0
   - 0.3665503901933998 edge_12_6_0_0 - 0.5403357928656001 edge_12_7_0_0
   - 0.4400481050544727 edge_12_8_0_0 - 0.32806915334748 edge_12_9_0_0
   + 0.7577397511386185 edge_12_10_0_0 + 2.949611656348747 edge_12_11_0_0
   + 2.470660556379307 edge_12_14_0_0 + 1.938972234191428 edge_12_15_0_0
   - 2.210493782541952 edge_14_1_0_0 - 0.3256528050854305 edge_14_2_0_0
   + 0.0140376593415572 edge_14_3_0_0 + 1.484620166778538 edge_14_4_0_0
   + 1.58545600032267 edge_14_5_0_0 - 0.7430274791810831 edge_14_6_0_0
   + 0.27790714356788 edge_14_7_0_0 + 0.4803034360728146 edge_14_8_0_0
   + 0.71256324004576 edge_14_9_0_0 + 1.393847448306848 edge_14_10_0_0
   + 1.483458543430234 edge_14_11_0_0 + 1.81682793014931 edge_14_12_0_0
   + 2.0816260946448 edge_14_15_0_0 + 0.08420593750058 edge_15_14_0_0
Subject To
 one_parent_1: edge_0_1_0_0 + edge_2_1_0_0 + edge_3_1_0_0 + edge_4_1_0_0
   + edge_5_1_0_0 + edge_6_1_0_0 + edge_7_1_0_0 + edge_8_1_0_0
   + edge_9_1_0_0 + edge_10_1_0_0 + edge_12_1_0_0 + edge_14_1_0_0 = 1
 consume_one_flow_unit_1: flow_0_1_0_0 - flow_1_2_0_0 - flow_1_3_0_0
   - flow_1_4_0_0 - flow_1_6_0_0 - flow_1_7_0_0 - flow_1_10_0_0
   + flow_2_1_0_0 + flow_3_1_0_0 + flow_4_1_0_0 + flow_5_1_0_0
   + flow_6_1_0_0 + flow_7_1_0_0 + flow_8_1_0_0 + flow_9_1_0_0
   + flow_10_1_0_0 + flow_12_1_0_0 + flow_14_1_0_0 = 1
 one_parent_2: edge_0_2_0_0 + edge_1_2_0_0 + edge_3_2_0_0 + edge_5_2_0_0
   + edge_6_2_0_0 + edge_7_2_0_0 + edge_8_2_0_0 + edge_9_2_0_0
   + edge_10_2_0_0 + edge_11_2_0_0 + edge_12_2_0_0 + edge_14_2_0_0 = 1
 consume_one_flow_unit_2: flow_0_2_0_0 + flow_1_2_0_0 - flow_2_1_0_0
   - flow_2_3_0_0 - flow_2_5_0_0 - flow_2_6_0_0 - flow_2_7_0_0
   - flow_2_9_0_0 - flow_2_10_0_0 - flow_2_11_0_0 - flow_2_12_0_0
   - flow_2_14_0_0 - flow_2_15_0_0 + flow_3_2_0_0 + flow_5_2_0_0
   + flow_6_2_0_0 + flow_7_2_0_0 + flow_8_2_0_0 + flow_9_2_0_0
   + flow_10_2_0_0 + flow_11_2_0_0 + flow_12_2_0_0 + flow_14_2_0_0 = 1
 one_parent_3: edge_0_3_0_0 + edge_1_3_0_0 + edge_2_3_0_0 + edge_5_3_0_0
   + edge_6_3_0_0 + edge_7_3_0_0 + edge_8_3_0_0 + edge_9_3_0_0
   + edge_10_3_0_0 + edge_11_3_0_0 + edge_12_3_0_0 + edge_14_3_0_0 = 1
 consume_one_flow_unit_3: flow_0_3_0_0 + flow_1_3_0_0 + flow_2_3_0_0
   - flow_3_1_0_0 - flow_3_2_0_0 - flow_3_4_0_0 - flow_3_5_0_0
   - flow_3_6_0_0 - flow_3_7_0_0 - flow_3_8_0_0 - flow_3_9_0_0
   - flow_3_10_0_0 - flow_3_11_0_0 - flow_3_12_0_0 - flow_3_14_0_0
   - flow_3_15_0_0 + flow_5_3_0_0 + flow_6_3_0_0 + flow_7_3_0_0
   + flow_8_3_0_0 + flow_9_3_0_0 + flow_10_3_0_0 + flow_11_3_0_0
   + flow_12_3_0_0 + flow_14_3_0_0 = 1
 one_parent_4: edge_0_4_0_0 + edge_1_4_0_0 + edge_3_4_0_0 + edge_5_4_0_0
   + edge_6_4_0_0 + edge_7_4_0_0 + edge_9_4_0_0 + edge_11_4_0_0
   + edge_12_4_0_0 + edge_14_4_0_0 = 1
 consume_one_flow_unit_4: flow_0_4_0_0 + flow_1_4_0_0 + flow_3_4_0_0
   - flow_4_1_0_0 - flow_4_6_0_0 - flow_4_7_0_0 - flow_4_10_0_0
   - flow_4_11_0_0 - flow_4_12_0_0 - flow_4_14_0_0 - flow_4_15_0_0
   + flow_5_4_0_0 + flow_6_4_0_0 + flow_7_4_0_0 + flow_9_4_0_0
   + flow_11_4_0_0 + flow_12_4_0_0 + flow_14_4_0_0 = 1
 one_parent_5: edge_0_5_0_0 + edge_2_5_0_0 + edge_3_5_0_0 + edge_6_5_0_0
   + edge_7_5_0_0 + edge_8_5_0_0 + edge_9_5_0_0 + edge_10_5_0_0
   + edge_11_5_0_0 + edge_12_5_0_0 + edge_14_5_0_0 = 1
 consume_one_flow_unit_5: flow_0_5_0_0 + flow_2_5_0_0 + flow_3_5_0_0
   - flow_5_1_0_0 - flow_5_2_0_0 - flow_5_3_0_0 - flow_5_4_0_0
   - flow_5_6_0_0 - flow_5_7_0_0 - flow_5_8_0_0 - flow_5_9_0_0
   - flow_5_10_0_0 - flow_5_11_0_0 - flow_5_12_0_0 - flow_5_14_0_0
   - flow_5_15_0_0 + flow_6_5_0_0 + flow_7_5_0_0 + flow_8_5_0_0
   + flow_9_5_0_0 + flow_10_5_0_0 + flow_11_5_0_0 + flow_12_5_0_0
   + flow_14_5_0_0 = 1
 one_parent_6: edge_1_6_0_0 + edge_2_6_0_0 + edge_3_6_0_0 + edge_4_6_0_0
   + edge_5_6_0_0 + edge_7_6_0_0 + edge_9_6_0_0 + edge_10_6_0_0
   + edge_11_6_0_0 + edge_12_6_0_0 + edge_14_6_0_0 = 1
 consume_one_flow_unit_6: flow_1_6_0_0 + flow_2_6_0_0 + flow_3_6_0_0
   + flow_4_6_0_0 + flow_5_6_0_0 - flow_6_1_0_0 - flow_6_2_0_0
   - flow_6_3_0_0 - flow_6_4_0_0 - flow_6_5_0_0 - flow_6_7_0_0
   - flow_6_8_0_0 - flow_6_9_0_0 - flow_6_10_0_0 - flow_6_11_0_0
   - flow_6_12_0_0 - flow_6_14_0_0 - flow_6_15_0_0 + flow_7_6_0_0
   + flow_9_6_0_0 + flow_10_6_0_0 + flow_11_6_0_0 + flow_12_6_0_0
   + flow_14_6_0_0 = 1
 one_parent_7: edge_0_7_0_0 + edge_1_7_0_0 + edge_2_7_0_0 + edge_3_7_0_0
   + edge_4_7_0_0 + edge_5_7_0_0 + edge_6_7_0_0 + edge_8_7_0_0
   + edge_9_7_0_0 + edge_10_7_0_0 + edge_11_7_0_0 + edge_12_7_0_0
   + edge_14_7_0_0 = 1
 consume_one_flow_unit_7: flow_0_7_0_0 + flow_1_7_0_0 + flow_2_7_0_0
   + flow_3_7_0_0 + flow_4_7_0_0 + flow_5_7_0_0 + flow_6_7_0_0
   - flow_7_1_0_0 - flow_7_2_0_0 - flow_7_3_0_0 - flow_7_4_0_0
   - flow_7_5_0_0 - flow_7_6_0_0 - flow_7_8_0_0 - flow_7_9_0_0
   - flow_7_10_0_0 - flow_7_11_0_0 - flow_7_12_0_0 - flow_7_14_0_0
   - flow_7_15_0_0 + flow_8_7_0_0 + flow_9_7_0_0 + flow_10_7_0_0
   + flow_11_7_0_0 + flow_12_7_0_0 + flow_14_7_0_0 = 1
 one_parent_8: edge_3_8_0_0 + edge_5_8_0_0 + edge_6_8_0_0 + edge_7_8_0_0
   + edge_9_8_0_0 + edge_10_8_0_0 + edge_11_8_0_0 + edge_12_8_0_0
   + edge_14_8_0_0 = 1
 consume_one_flow_unit_8: flow_3_8_0_0 + flow_5_8_0_0 + flow_6_8_0_0
   + flow_7_8_0_0 - flow_8_1_0_0 - flow_8_2_0_0 - flow_8_3_0_0
   - flow_8_5_0_0 - flow_8_7_0_0 - flow_8_9_0_0 - flow_8_10_0_0
   - flow_8_11_0_0 - flow_8_12_0_0 - flow_8_14_0_0 + flow_9_8_0_0
   + flow_10_8_0_0 + flow_11_8_0_0 + flow_12_8_0_0 + flow_14_8_0_0 = 1
 one_parent_9: edge_0_9_0_0 + edge_2_9_0_0 + edge_3_9_0_0 + edge_5_9_0_0
   + edge_6_9_0_0 + edge_7_9_0_0 + edge_8_9_0_0 + edge_10_9_0_0
   + edge_11_9_0_0 + edge_12_9_0_0 + edge_14_9_0_0 = 1
 consume_one_flow_unit_9: flow_0_9_0_0 + flow_2_9_0_0 + flow_3_9_0_0
   + flow_5_9_0_0 + flow_6_9_0_0 + flow_7_9_0_0 + flow_8_9_0_0
   - flow_9_1_0_0 - flow_9_2_0_0 - flow_9_3_0_0 - flow_9_4_0_0
   - flow_9_5_0_0 - flow_9_6_0_0 - flow_9_7_0_0 - flow_9_8_0_0
   - flow_9_10_0_0 - flow_9_11_0_0 - flow_9_12_0_0 - flow_9_14_0_0
   - flow_9_15_0_0 + flow_10_9_0_0 + flow_11_9_0_0 + flow_12_9_0_0
   + flow_14_9_0_0 = 1
 one_parent_10: edge_1_10_0_0 + edge_2_10_0_0 + edge_3_10_0_0
   + edge_4_10_0_0 + edge_5_10_0_0 + edge_6_10_0_0 + edge_7_10_0_0
   + edge_8_10_0_0 + edge_9_10_0_0 + edge_11_10_0_0 + edge_12_10_0_0
   + edge_14_10_0_0 = 1
 consume_one_flow_unit_10: flow_1_10_0_0 + flow_2_10_0_0 + flow_3_10_0_0
   + flow_4_10_0_0 + flow_5_10_0_0 + flow_6_10_0_0 + flow_7_10_0_0
   + flow_8_10_0_0 + flow_9_10_0_0 - flow_10_1_0_0 - flow_10_2_0_0
   - flow_10_3_0_0 - flow_10_5_0_0 - flow_10_6_0_0 - flow_10_7_0_0
   - flow_10_8_0_0 - flow_10_9_0_0 - flow_10_11_0_0 - flow_10_12_0_0
   - flow_10_14_0_0 + flow_11_10_0_0 + flow_12_10_0_0 + flow_14_10_0_0 = 1
 one_parent_11: edge_0_11_0_0 + edge_2_11_0_0 + edge_3_11_0_0
   + edge_4_11_0_0 + edge_5_11_0_0 + edge_6_11_0_0 + edge_7_11_0_0
   + edge_8_11_0_0 + edge_9_11_0_0 + edge_10_11_0_0 + edge_12_11_0_0
   + edge_14_11_0_0 = 1
 consume_one_flow_unit_11: flow_0_11_0_0 + flow_2_11_0_0 + flow_3_11_0_0
   + flow_4_11_0_0 + flow_5_11_0_0 + flow_6_11_0_0 + flow_7_11_0_0
   + flow_8_11_0_0 + flow_9_11_0_0 + flow_10_11_0_0 - flow_11_2_0_0
   - flow_11_3_0_0 - flow_11_4_0_0 - flow_11_5_0_0 - flow_11_6_0_0
   - flow_11_7_0_0 - flow_11_8_0_0 - flow_11_9_0_0 - flow_11_10_0_0
   - flow_11_12_0_0 - flow_11_14_0_0 - flow_11_15_0_0 + flow_12_11_0_0
   + flow_14_11_0_0 = 1
 one_parent_12: edge_0_12_0_0 + edge_2_12_0_0 + edge_3_12_0_0
   + edge_4_12_0_0 + edge_5_12_0_0 + edge_6_12_0_0 + edge_7_12_0_0
   + edge_8_12_0_0 + edge_9_12_0_0 + edge_10_12_0_0 + edge_11_12_0_0
   + edge_14_12_0_0 = 1
 consume_one_flow_unit_12: flow_0_12_0_0 + flow_2_12_0_0 + flow_3_12_0_0
   + flow_4_12_0_0 + flow_5_12_0_0 + flow_6_12_0_0 + flow_7_12_0_0
   + flow_8_12_0_0 + flow_9_12_0_0 + flow_10_12_0_0 + flow_11_12_0_0
   - flow_12_1_0_0 - flow_12_2_0_0 - flow_12_3_0_0 - flow_12_4_0_0
   - flow_12_5_0_0 - flow_12_6_0_0 - flow_12_7_0_0 - flow_12_8_0_0
   - flow_12_9_0_0 - flow_12_10_0_0 - flow_12_11_0_0 - flow_12_14_0_0
   - flow_12_15_0_0 + flow_14_12_0_0 = 1
 one_parent_13: = 1
 consume_one_flow_unit_13: = 1
 one_parent_14: edge_0_14_0_0 + edge_2_14_0_0 + edge_3_14_0_0
   + edge_4_14_0_0 + edge_5_14_0_0 + edge_6_14_0_0 + edge_7_14_0_0
   + edge_8_14_0_0 + edge_9_14_0_0 + edge_10_14_0_0 + edge_11_14_0_0
   + edge_12_14_0_0 + edge_15_14_0_0 = 1
 consume_one_flow_unit_14: flow_0_14_0_0 + flow_2_14_0_0 + flow_3_14_0_0
   + flow_4_14_0_0 + flow_5_14_0_0 + flow_6_14_0_0 + flow_7_14_0_0
   + flow_8_14_0_0 + flow_9_14_0_0 + flow_10_14_0_0 + flow_11_14_0_0
   + flow_12_14_0_0 - flow_14_1_0_0 - flow_14_2_0_0 - flow_14_3_0_0
   - flow_14_4_0_0 - flow_14_5_0_0 - flow_14_6_0_0 - flow_14_7_0_0
   - flow_14_8_0_0 - flow_14_9_0_0 - flow_14_10_0_0 - flow_14_11_0_0
   - flow_14_12_0_0 - flow_14_15_0_0 + flow_15_14_0_0 = 1
 one_parent_15: edge_2_15_0_0 + edge_3_15_0_0 + edge_4_15_0_0
   + edge_5_15_0_0 + edge_6_15_0_0 + edge_7_15_0_0 + edge_9_15_0_0
   + edge_11_15_0_0 + edge_12_15_0_0 + edge_14_15_0_0 = 1
 consume_one_flow_unit_15: flow_2_15_0_0 + flow_3_15_0_0 + flow_4_15_0_0
   + flow_5_15_0_0 + flow_6_15_0_0 + flow_7_15_0_0 + flow_9_15_0_0
   + flow_11_15_0_0 + flow_12_15_0_0 + flow_14_15_0_0 - flow_15_14_0_0 = 1
 root_flow: flow_0_1_0_0 + flow_0_2_0_0 + flow_0_3_0_0 + flow_0_4_0_0
   + flow_0_5_0_0 + flow_0_7_0_0 + flow_0_9_0_0 + flow_0_11_0_0
   + flow_0_12_0_0 + flow_0_14_0_0 = 15
 inactive_no_flow_0_1_0_0: flow_0_1_0_0 - 1000 edge_0_1_0_0 <= 0
 inactive_no_flow_0_2_0_0: flow_0_2_0_0 - 1000 edge_0_2_0_0 <= 0
 inactive_no_flow_0_3_0_0: flow_0_3_0_0 - 1000 edge_0_3_0_0 <= 0
 inactive_no_flow_0_4_0_0: flow_0_4_0_0 - 1000 edge_0_4_0_0 <= 0
 inactive_no_flow_0_5_0_0: flow_0_5_0_0 - 1000 edge_0_5_0_0 <= 0
 inactive_no_flow_0_7_0_0: flow_0_7_0_0 - 1000 edge_0_7_0_0 <= 0
 inactive_no_flow_0_9_0_0: flow_0_9_0_0 - 1000 edge_0_9_0_0 <= 0
 inactive_no_flow_0_11_0_0: flow_0_11_0_0 - 1000 edge_0_11_0_0 <= 0
 inactive_no_flow_0_12_0_0: flow_0_12_0_0 - 1000 edge_0_12_0_0 <= 0
 inactive_no_flow_0_14_0_0: flow_0_14_0_0 - 1000 edge_0_14_0_0 <= 0
 inactive_no_flow_1_2_0_0: flow_1_2_0_0 - 1000 edge_1_2_0_0 <= 0
 inactive_no_flow_1_3_0_0: flow_1_3_0_0 - 1000 edge_1_3_0_0 <= 0
 inactive_no_flow_1_4_0_0: flow_1_4_0_0 - 1000 edge_1_4_0_0 <= 0
 inactive_no_flow_1_6_0_0: flow_1_6_0_0 - 1000 edge_1_6_0_0 <= 0
 inactive_no_flow_1_7_0_0: flow_1_7_0_0 - 1000 edge_1_7_0_0 <= 0
 inactive_no_flow_1_10_0_0: flow_1_10_0_0 - 1000 edge_1_10_0_0 <= 0
 inactive_no_flow_2_1_0_0: flow_2_1_0_0 - 1000 edge_2_1_0_0 <= 0
 inactive_no_flow_2_3_0_0: flow_2_3_0_0 - 1000 edge_2_3_0_0 <= 0
 inactive_no_flow_2_5_0_0: flow_2_5_0_0 - 1000 edge_2_5_0_0 <= 0
 inactive_no_flow_2_6_0_0: flow_2_6_0_0 - 1000 edge_2_6_0_0 <= 0
 inactive_no_flow_2_7_0_0: flow_2_7_0_0 - 1000 edge_2_7_0_0 <= 0
 inactive_no_flow_2_9_0_0: flow_2_9_0_0 - 1000 edge_2_9_0_0 <= 0
 inactive_no_flow_2_10_0_0: flow_2_10_0_0 - 1000 edge_2_10_0_0 <= 0
 inactive_no_flow_2_11_0_0: flow_2_11_0_0 - 1000 edge_2_11_0_0 <= 0
 inactive_no_flow_2_12_0_0: flow_2_12_0_0 - 1000 edge_2_12_0_0 <= 0
 inactive_no_flow_2_14_0_0: flow_2_14_0_0 - 1000 edge_2_14_0_0 <= 0
 inactive_no_flow_2_15_0_0: flow_2_15_0_0 - 1000 edge_2_15_0_0 <= 0
 inactive_no_flow_3_1_0_0: flow_3_1_0_0 - 1000 edge_3_1_0_0 <= 0
 inactive_no_flow_3_2_0_0: flow_3_2_0_0 - 1000 edge_3_2_0_0 <= 0
 inactive_no_flow_3_4_0_0: flow_3_4_0_0 - 1000 edge_3_4_0_0 <= 0
 inactive_no_flow_3_5_0_0: flow_3_5_0_0 - 1000 edge_3_5_0_0 <= 0
 inactive_no_flow_3_6_0_0: flow_3_6_0_0 - 1000 edge_3_6_0_0 <= 0
 inactive_no_flow_3_7_0_0: flow_3_7_0_0 - 1000 edge_3_7_0_0 <= 0
 inactive_no_flow_3_8_0_0: flow_3_8_0_0 - 1000 edge_3_8_0_0 <= 0
 inactive_no_flow_3_9_0_0: flow_3_9_0_0 - 1000 edge_3_9_0_0 <= 0
 inactive_no_flow_3_10_0_0: flow_3_10_0_0 - 1000 edge_3_10_0_0 <= 0
 inactive_no_flow_3_11_0_0: flow_3_11_0_0 - 1000 edge_3_11_0_0 <= 0
 inactive_no_flow_3_12_0_0: flow_3_12_0_0 - 1000 edge_3_12_0_0 <= 0
 inactive_no_flow_3_14_0_0: flow_3_14_0_0 - 1000 edge_3_14_0_0 <= 0
 inactive_no_flow_3_15_0_0: flow_3_15_0_0 - 1000 edge_3_15_0_0 <= 0
 inactive_no_flow_4_1_0_0: flow_4_1_0_0 - 1000 edge_4_1_0_0 <= 0
 inactive_no_flow_4_6_0_0: flow_4_6_0_0 - 1000 edge_4_6_0_0 <= 0
 inactive_no_flow_4_7_0_0: flow_4_7_0_0 - 1000 edge_4_7_0_0 <= 0
 inactive_no_flow_4_10_0_0: flow_4_10_0_0 - 1000 edge_4_10_0_0 <= 0
 inactive_no_flow_4_11_0_0: flow_4_11_0_0 - 1000 edge_4_11_0_0 <= 0
 inactive_no_flow_4_12_0_0: flow_4_12_0_0 - 1000 edge_4_12_0_0 <= 0
 inactive_no_flow_4_14_0_0: flow_4_14_0_0 - 1000 edge_4_14_0_0 <= 0
 inactive_no_flow_4_15_0_0: flow_4_15_0_0 - 1000 edge_4_15_0_0 <= 0
 inactive_no_flow_5_1_0_0: flow_5_1_0_0 - 1000 edge_5_1_0_0 <= 0
 inactive_no_flow_5_2_0_0: flow_5_2_0_0 - 1000 edge_5_2_0_0 <= 0
 inactive_no_flow_5_3_0_0: flow_5_3_0_0 - 1000 edge_5_3_0_0 <= 0
 inactive_no_flow_5_4_0_0: flow_5_4_0_0 - 1000 edge_5_4_0_0 <= 0
 inactive_no_flow_5_6_0_0: flow_5_6_0_0 - 1000 edge_5_6_0_0 <= 0
 inactive_no_flow_5_7_0_0: flow_5_7_0_0 - 1000 edge_5_7_0_0 <= 0
 inactive_no_flow_5_8_0_0: flow_5_8_0_0 - 1000 edge_5_8_0_0 <= 0
 inactive_no_flow_5_9_0_0: flow_5_9_0_0 - 1000 edge_5_9_0_0 <= 0
 inactive_no_flow_5_10_0_0: flow_5_10_0_0 - 1000 edge_5_10_0_0 <= 0
 inactive_no_flow_5_11_0_0: flow_5_11_0_0 - 1000 edge_5_11_0_0 <= 0
 inactive_no_flow_5_12_0_0: flow_5_12_0_0 - 1000 edge_5_12_0_0 <= 0
 inactive_no_flow_5_14_0_0: flow_5_14_0_0 - 1000 edge_5_14_0_0 <= 0
 inactive_no_flow_5_15_0_0: flow_5_15_0_0 - 1000 edge_5_15_0_0 <= 0
 inactive_no_flow_6_1_0_0: flow_6_1_0_0 - 1000 edge_6_1_0_0 <= 0
 inactive_no_flow_6_2_0_0: flow_6_2_0_0 - 1000 edge_6_2_0_0 <= 0
 inactive_no_flow_6_3_0_0: flow_6_3_0_0 - 1000 edge_6_3_0_0 <= 0
 inactive_no_flow_6_4_0_0: flow_6_4_0_0 - 1000 edge_6_4_0_0 <= 0
 inactive_no_flow_6_5_0_0: flow_6_5_0_0 - 1000 edge_6_5_0_0 <= 0
 inactive_no_flow_6_7_0_0: flow_6_7_0_0 - 1000 edge_6_7_0_0 <= 0
 inactive_no_flow_6_8_0_0: flow_6_8_0_0 - 1000 edge_6_8_0_0 <= 0
 inactive_no_flow_6_9_0_0: flow_6_9_0_0 - 1000 edge_6_9_0_0 <= 0
 inactive_no_flow_6_10_0_0: flow_6_10_0_0 - 1000 edge_6_10_0_0 <= 0
 inactive_no_flow_6_11_0_0: flow_6_11_0_0 - 1000 edge_6_11_0_0 <= 0
 inactive_no_flow_6_12_0_0: flow_6_12_0_0 - 1000 edge_6_12_0_0 <= 0
 inactive_no_flow_6_14_0_0: flow_6_14_0_0 - 1000 edge_6_14_0_0 <= 0
 inactive_no_flow_6_15_0_0: flow_6_15_0_0 - 1000 edge_6_15_0_0 <= 0
 inactive_no_flow_7_1_0_0: flow_7_1_0_0 - 1000 edge_7_1_0_0 <= 0
 inactive_no_flow_7_2_0_0: flow_7_2_0_0 - 1000 edge_7_2_0_0 <= 0
 inactive_no_flow_7_3_0_0: flow_7_3_0_0 - 1000 edge_7_3_0_0 <= 0
 inactive_no_flow_7_4_0_0: flow_7_4_0_0 - 1000 edge_7_4_0_0 <= 0
 inactive_no_flow_7_5_0_0: flow_7_5_0_0 - 1000 edge_7_5_0_0 <= 0
 inactive_no_flow_7_6_0_0: flow_7_6_0_0 - 1000 edge_7_6_0_0 <= 0
 inactive_no_flow_7_8_0_0: flow_7_8_0_0 - 1000 edge_7_8_0_0 <= 0
 inactive_no_flow_7_9_0_0: flow_7_9_0_0 - 1000 edge_7_9_0_0 <= 0
 inactive_no_flow_7_10_0_0: flow_7_10_0_0 - 1000 edge_7_10_0_0 <= 0
 inactive_no_flow_7_11_0_0: flow_7_11_0_0 - 1000 edge_7_11_0_0 <= 0
 inactive_no_flow_7_12_0_0: flow_7_12_0_0 - 1000 edge_7_12_0_0 <= 0
 inactive_no_flow_7_14_0_0: flow_7_14_0_0 - 1000 edge_7_14_0_0 <= 0
 inactive_no_flow_7_15_0_0: flow_7_15_0_0 - 1000 edge_7_15_0_0 <= 0
 inactive_no_flow_8_1_0_0: flow_8_1_0_0 - 1000 edge_8_1_0_0 <= 0
 inactive_no_flow_8_2_0_0: flow_8_2_0_0 - 1000 edge_8_2_0_0 <= 0
 inactive_no_flow_8_3_0_0: flow_8_3_0_0 - 1000 edge_8_3_0_0 <= 0
 inactive_no_flow_8_5_0_0: flow_8_5_0_0 - 1000 edge_8_5_0_0 <= 0
 inactive_no_flow_8_7_0_0: flow_8_7_0_0 - 1000 edge_8_7_0_0 <= 0
 inactive_no_flow_8_9_0_0: flow_8_9_0_0 - 1000 edge_8_9_0_0 <= 0
 inactive_no_flow_8_10_0_0: flow_8_10_0_0 - 1000 edge_8_10_0_0 <= 0
 inactive_no_flow_8_11_0_0: flow_8_11_0_0 - 1000 edge_8_11_0_0 <= 0
 inactive_no_flow_8_12_0_0: flow_8_12_0_0 - 1000 edge_8_12_0_0 <= 0
 inactive_no_flow_8_14_0_0: flow_8_14_0_0 - 1000 edge_8_14_0_0 <= 0
 inactive_no_flow_9_1_0_0: flow_9_1_0_0 - 1000 edge_9_1_0_0 <= 0
 inactive_no_flow_9_2_0_0: flow_9_2_0_0 - 1000 edge_9_2_0_0 <= 0
 inactive_no_flow_9_3_0_0: flow_9_3_0_0 - 1000 edge_9_3_0_0 <= 0
 inactive_no_flow_9_4_0_0: flow_9_4_0_0 - 1000 edge_9_4_0_0 <= 0
 inactive_no_flow_9_5_0_0: flow_9_5_0_0 - 1000 edge_9_5_0_0 <= 0
 inactive_no_flow_9_6_0_0: flow_9_6_0_0 - 1000 edge_9_6_0_0 <= 0
 inactive_no_flow_9_7_0_0: flow_9_7_0_0 - 1000 edge_9_7_0_0 <= 0
 inactive_no_flow_9_8_0_0: flow_9_8_0_0 - 1000 edge_9_8_0_0 <= 0
 inactive_no_flow_9_10_0_0: flow_9_10_0_0 - 1000 edge_9_10_0_0 <= 0
 inactive_no_flow_9_11_0_0: flow_9_11_0_0 - 1000 edge_9_11_0_0 <= 0
 inactive_no_flow_9_12_0_0: flow_9_12_0_0 - 1000 edge_9_12_0_0 <= 0
 inactive_no_flow_9_14_0_0: flow_9_14_0_0 - 1000 edge_9_14_0_0 <= 0
 inactive_no_flow_9_15_0_0: flow_9_15_0_0 - 1000 edge_9_15_0_0 <= 0
 inactive_no_flow_10_1_0_0: flow_10_1_0_0 - 1000 edge_10_1_0_0 <= 0
 inactive_no_flow_10_2_0_0: flow_10_2_0_0 - 1000 edge_10_2_0_0 <= 0
 inactive_no_flow_10_3_0_0: flow_10_3_0_0 - 1000 edge_10_3_0_0 <= 0
 inactive_no_flow_10_5_0_0: flow_10_5_0_0 - 1000 edge_10_5_0_0 <= 0
 inactive_no_flow_10_6_0_0: flow_10_6_0_0 - 1000 edge_10_6_0_0 <= 0
 inactive_no_flow_10_7_0_0: flow_10_7_0_0 - 1000 edge_10_7_0_0 <= 0
 inactive_no_flow_10_8_0_0: flow_10_8_0_0 - 1000 edge_10_8_0_0 <= 0
 inactive_no_flow_10_9_0_0: flow_10_9_0_0 - 1000 edge_10_9_0_0 <= 0
 inactive_no_flow_10_11_0_0: flow_10_11_0_0 - 1000 edge_10_11_0_0 <= 0
 inactive_no_flow_10_12_0_0: flow_10_12_0_0 - 1000 edge_10_12_0_0 <= 0
 inactive_no_flow_10_14_0_0: flow_10_14_0_0 - 1000 edge_10_14_0_0 <= 0
 inactive_no_flow_11_2_0_0: flow_11_2_0_0 - 1000 edge_11_2_0_0 <= 0
 inactive_no_flow_11_3_0_0: flow_11_3_0_0 - 1000 edge_11_3_0_0 <= 0
 inactive_no_flow_11_4_0_0: flow_11_4_0_0 - 1000 edge_11_4_0_0 <= 0
 inactive_no_flow_11_5_0_0: flow_11_5_0_0 - 1000 edge_11_5_0_0 <= 0
 inactive_no_flow_11_6_0_0: flow_11_6_0_0 - 1000 edge_11_6_0_0 <= 0
 inactive_no_flow_11_7_0_0: flow_11_7_0_0 - 1000 edge_11_7_0_0 <= 0
 inactive_no_flow_11_8_0_0: flow_11_8_0_0 - 1000 edge_11_8_0_0 <= 0
 inactive_no_flow_11_9_0_0: flow_11_9_0_0 - 1000 edge_11_9_0_0 <= 0
 inactive_no_flow_11_10_0_0: flow_11_10_0_0 - 1000 edge_11_10_0_0 <= 0
 inactive_no_flow_11_12_0_0: flow_11_12_0_0 - 1000 edge_11_12_0_0 <= 0
 inactive_no_flow_11_14_0_0: flow_11_14_0_0 - 1000 edge_11_14_0_0 <= 0
 inactive_no_flow_11_15_0_0: flow_11_15_0_0 - 1000 edge_11_15_0_0 <= 0
 inactive_no_flow_12_1_0_0: flow_12_1_0_0 - 1000 edge_12_1_0_0 <= 0
 inactive_no_flow_12_2_0_0: flow_12_2_0_0 - 1000 edge_12_2_0_0 <= 0
 inactive_no_flow_12_3_0_0: flow_12_3_0_0 - 1000 edge_12_3_0_0 <= 0
 inactive_no_flow_12_4_0_0: flow_12_4_0_0 - 1000 edge_12_4_0_0 <= 0
 inactive_no_flow_12_5_0_0: flow_12_5_0_0 - 1000 edge_12_5_0_0 <= 0
 inactive_no_flow_12_6_0_0: flow_12_6_0_0 - 1000 edge_12_6_0_0 <= 0
 inactive_no_flow_12_7_0_0: flow_12_7_0_0 - 1000 edge_12_7_0_0 <= 0
 inactive_no_flow_12_8_0_0: flow_12_8_0_0 - 1000 edge_12_8_0_0 <= 0
 inactive_no_flow_12_9_0_0: flow_12_9_0_0 - 1000 edge_12_9_0_0 <= 0
 inactive_no_flow_12_10_0_0: flow_12_10_0_0 - 1000 edge_12_10_0_0 <= 0
 inactive_no_flow_12_11_0_0: flow_12_11_0_0 - 1000 edge_12_11_0_0 <= 0
 inactive_no_flow_12_14_0_0: flow_12_14_0_0 - 1000 edge_12_14_0_0 <= 0
 inactive_no_flow_12_15_0_0: flow_12_15_0_0 - 1000 edge_12_15_0_0 <= 0
 inactive_no_flow_14_1_0_0: flow_14_1_0_0 - 1000 edge_14_1_0_0 <= 0
 inactive_no_flow_14_2_0_0: flow_14_2_0_0 - 1000 edge_14_2_0_0 <= 0
 inactive_no_flow_14_3_0_0: flow_14_3_0_0 - 1000 edge_14_3_0_0 <= 0
 inactive_no_flow_14_4_0_0: flow_14_4_0_0 - 1000 edge_14_4_0_0 <= 0
 inactive_no_flow_14_5_0_0: flow_14_5_0_0 - 1000 edge_14_5_0_0 <= 0
 inactive_no_flow_14_6_0_0: flow_14_6_0_0 - 1000 edge_14_6_0_0 <= 0
 inactive_no_flow_14_7_0_0: flow_14_7_0_0 - 1000 edge_14_7_0_0 <= 0
 inactive_no_flow_14_8_0_0: flow_14_8_0_0 - 1000 edge_14_8_0_0 <= 0
 inactive_no_flow_14_9_0_0: flow_14_9_0_0 - 1000 edge_14_9_0_0 <= 0
 inactive_no_flow_14_10_0_0: flow_14_10_0_0 - 1000 edge_14_10_0_0 <= 0
 inactive_no_flow_14_11_0_0: flow_14_11_0_0 - 1000 edge_14_11_0_0 <= 0
 inactive_no_flow_14_12_0_0: flow_14_12_0_0 - 1000 edge_14_12_0_0 <= 0
 inactive_no_flow_14_15_0_0: flow_14_15_0_0 - 1000 edge_14_15_0_0 <= 0
 inactive_no_flow_15_14_0_0: flow_15_14_0_0 - 1000 edge_15_14_0_0 <= 0
Bounds
Binaries
 edge_0_1_0_0 edge_0_2_0_0 edge_0_3_0_0 edge_0_4_0_0 edge_0_5_0_0
 edge_0_7_0_0 edge_0_9_0_0 edge_0_11_0_0 edge_0_12_0_0 edge_0_14_0_0
 edge_1_2_0_0 edge_1_3_0_0 edge_1_4_0_0 edge_1_6_0_0 edge_1_7_0_0
 edge_1_10_0_0 edge_2_1_0_0 edge_2_3_0_0 edge_2_5_0_0 edge_2_6_0_0
 edge_2_7_0_0 edge_2_9_0_0 edge_2_10_0_0 edge_2_11_0_0 edge_2_12_0_0
 edge_2_14_0_0 edge_2_15_0_0 edge_3_1_0_0 edge_3_2_0_0 edge_3_4_0_0
 edge_3_5_0_0 edge_3_6_0_0 edge_3_7_0_0 edge_3_8_0_0 edge_3_9_0_0
 edge_3_10_0_0 edge_3_11_0_0 edge_3_12_0_0 edge_3_14_0_0 edge_3_15_0_0
 edge_4_1_0_0 edge_4_6_0_0 edge_4_7_0_0 edge_4_10_0_0 edge_4_11_0_0
 edge_4_12_0_0 edge_4_14_0_0 edge_4_15_0_0 edge_5_1_0_0 edge_5_2_0_0
 edge_5_3_0_0 edge_5_4_0_0 edge_5_6_0_0 edge_5_7_0_0 edge_5_8_0_0
 edge_5_9_0_0 edge_5_10_0_0 edge_5_11_0_0 edge_5_12_0_0 edge_5_14_0_0
 edge_5_15_0_0 edge_6_1_0_0 edge_6_2_0_0 edge_6_3_0_0 edge_6_4_0_0
 edge_6_5_0_0 edge_6_7_0_0 edge_6_8_0_0 edge_6_9_0_0 edge_6_10_0_0
 edge_6_11_0_0 edge_6_12_0_0 edge_6_14_0_0 edge_6_15_0_0 edge_7_1_0_0
 edge_7_2_0_0 edge_7_3_0_0 edge_7_4_0_0 edge_7_5_0_0 edge_7_6_0_0
 edge_7_8_0_0 edge_7_9_0_0 edge_7_10_0_0 edge_7_11_0_0 edge_7_12_0_0
 edge_7_14_0_0 edge_7_15_0_0 edge_8_1_0_0 edge_8_2_0_0 edge_8_3_0_0
 edge_8_5_0_0 edge_8_7_0_0 edge_8_9_0_0 edge_8_10_0_0 edge_8_11_0_0
 edge_8_12_0_0 edge_8_14_0_0 edge_9_1_0_0 edge_9_2_0_0 edge_9_3_0_0
 edge_9_4_0_0 edge_9_5_0_0 edge_9_6_0_0 edge_9_7_0_0 edge_9_8_0_0
 edge_9_10_0_0 edge_9_11_0_0 edge_9_12_0_0 edge_9_14_0_0 edge_9_15_0_0
 edge_10_1_0_0 edge_10_2_0_0 edge_10_3_0_0 edge_10_5_0_0 edge_10_6_0_0
 edge_10_7_0_0 edge_10_8_0_0 edge_10_9_0_0 edge_10_11_0_0 edge_10_12_0_0
 edge_10_14_0_0 edge_11_2_0_0 edge_11_3_0_0 edge_11_4_0_0 edge_11_5_0_0
 edge_11_6_0_0 edge_11_7_0_0 edge_11_8_0_0 edge_11_9_0_0 edge_11_10_0_0
 edge_11_12_0_0 edge_11_14_0_0 edge_11_15_0_0 edge_12_1_0_0 edge_12_2_0_0
 edge_12_3_0_0 edge_12_4_0_0 edge_12_5_0_0 edge_12_6_0_0 edge_12_7_0_0
 edge_12_8_0_0 edge_12_9_0_0 edge_12_10_0_0 edge_12_11_0_0 edge_12_14_0_0
 edge_12_15_0_0 edge_14_1_0_0 edge_14_2_0_0 edge_14_3_0_0 edge_14_4_0_0
 edge_14_5_0_0 edge_14_6_0_0 edge_14_7_0_0 edge_14_8_0_0 edge_14_9_0_0
 edge_14_10_0_0 edge_14_11_0_0 edge_14_12_0_0 edge_14_15_0_0 edge_15_14_0_0
End
